(set-option :produce-models true)
(set-logic QF_UF)
(declare-fun p7() Bool)
(declare-fun p33() Bool)
(declare-fun p10() Bool)
(declare-fun p4() Bool)
(declare-fun p6() Bool)
(declare-fun p29() Bool)
(declare-fun p18() Bool)
(declare-fun p26() Bool)
(declare-fun p20() Bool)
(declare-fun p13() Bool)
(declare-fun p24() Bool)
(declare-fun p1() Bool)
(declare-fun p37() Bool)
(declare-fun p9() Bool)
(declare-fun p17() Bool)
(declare-fun p0() Bool)
(declare-fun p3() Bool)
(declare-fun p25() Bool)
(declare-fun p21() Bool)
(declare-fun p32() Bool)
(declare-fun p39() Bool)
(declare-fun p30() Bool)
(declare-fun p28() Bool)
(declare-fun p31() Bool)
(declare-fun p15() Bool)
(declare-fun p8() Bool)
(declare-fun p34() Bool)
(declare-fun p2() Bool)
(declare-fun p5() Bool)
(declare-fun p22() Bool)
(declare-fun p38() Bool)
(declare-fun p27() Bool)
(declare-fun p12() Bool)
(declare-fun p23() Bool)
(declare-fun p14() Bool)
(declare-fun p11() Bool)
(declare-fun p36() Bool)
(declare-fun p16() Bool)
(declare-fun p19() Bool)
(declare-fun p35() Bool)
(assert
(and (or p7 (not p33) (not p10)) (or (not p4) p6 (not p29)) (or p18 (not p26) (not p20)) (or p13 (not p13) p24) (or (not p18) p1 p37) (or p26 (not p13) (not p9)) (or (not p17) (not p0) (not p3)) (or (not p25) (not p21) (not p26)) (or p4 p32 (not p20)) (or p29 (not p4) p4) (or (not p39) p32 (not p0)) (or p30 p30 (not p6)) (or (not p4) (not p28) (not p3)) (or (not p31) p15 (not p32)) (or (not p33) p7 p8) (or (not p34) (not p2) (not p5)) (or p5 (not p6) p29) (or (not p22) p38 (not p37)) (or (not p24) p27 (not p17)) (or (not p9) (not p12) (not p31)) (or (not p5) (not p9) (not p7)) (or (not p20) p23 p10) (or p14 (not p37) (not p18)) (or p30 p12 p12) (or (not p25) (not p11) p11) (or p10 (not p31) p6) (or (not p36) p13 (not p20)) (or p8 p7 p9) (or (not p29) (not p8) (not p32)) (or (not p1) (not p29) (not p3)) (or p23 p13 (not p30)) (or (not p23) (not p21) p32) (or p17 p18 (not p30)) (or p29 p18 (not p22)) (or (not p25) (not p21) (not p31)) (or (not p17) (not p23) (not p12)) (or p29 p37 p31) (or p0 p9 p14) (or p12 (not p13) p21) (or p13 p3 p16) (or p31 (not p7) (not p33)) (or (not p31) (not p22) p7) (or (not p2) p24 (not p26)) (or (not p28) (not p31) (not p19)) (or p3 (not p13) (not p23)) (or (not p12) p30 (not p35)) (or (not p24) p36 (not p6)) (or p14 p15 (not p1)) (or p0 p25 p6) (or (not p32) (not p36) (not p37)) (or (not p25) p23 p0) (or (not p24) (not p35) p9) (or p3 (not p24) (not p20)) (or (not p3) (not p35) p2) (or p31 (not p30) p23) (or p32 p33 p7) (or (not p4) (not p32) (not p5)) (or (not p34) (not p4) (not p13)) (or (not p4) p39 (not p13)) (or (not p26) (not p11) (not p21)) (or p14 (not p23) (not p7)) (or p37 p37 p6) (or (not p15) p13 (not p35)) (or (not p18) (not p22) (not p11)) (or p36 p23 p12) (or p3 p12 (not p8)) (or (not p10) (not p18) p24) (or (not p38) p15 (not p7)) (or p6 p6 (not p39)) (or p20 (not p23) (not p20)) (or p33 p32 p4) (or (not p32) p3 (not p2)) (or p25 (not p18) (not p38)) (or p25 (not p34) (not p6)) (or p6 p10 (not p33)) (or (not p37) (not p26) p10) (or p38 (not p25) p31) (or (not p34) p19 (not p2)) (or p0 p22 p1) (or p28 (not p8) (not p5)) (or p10 p23 (not p31)) (or (not p21) (not p13) p11) (or p17 p29 p35) (or (not p22) (not p16) p16) (or p28 p17 p29) (or (not p23) p39 (not p17)) (or (not p31) p27 (not p7)) (or (not p14) p22 p20) (or p5 (not p39) (not p21)) (or p18 (not p24) p37) (or p27 p32 p25) (or p13 (not p16) p18) (or (not p9) p23 p15) (or (not p25) (not p18) p12) (or (not p5) (not p32) p11) (or p6 p1 (not p35)) (or p3 (not p12) p31) (or (not p35) (not p7) (not p5)) (or p17 p7 (not p19)) (or (not p32) (not p11) (not p30)) (or (not p6) p22 p7) (or p26 p4 (not p15)) (or (not p35) (not p14) (not p28)) (or (not p29) p39 p30) (or p32 (not p36) p0) (or p8 p17 (not p2)) (or (not p30) p17 (not p33)) (or (not p38) p27 (not p31)) (or (not p32) p28 (not p7)) (or (not p15) (not p26) p1) (or (not p11) p26 (not p13)) (or p8 (not p0) p21) (or (not p23) p27 (not p4)) (or (not p18) (not p29) (not p26)) (or p14 (not p24) p38) (or (not p39) p30 (not p25)) (or (not p11) p0 p21) (or p12 (not p32) p27) (or p26 (not p16) p23) (or (not p13) (not p21) p33) (or (not p0) (not p19) (not p8)) (or p19 p30 p34) (or p20 (not p21) (not p13)) (or (not p23) p9 (not p26)) (or p33 p12 (not p14)) (or (not p9) (not p22) (not p32)) (or p6 p35 (not p2)) (or p36 (not p18) p29) (or p36 p22 p28) (or (not p16) (not p0) (not p33)) (or (not p26) p31 p5) (or (not p19) (not p38) p12) (or p19 (not p34) p29) (or (not p16) p29 (not p19)) (or p14 p2 (not p11)) (or (not p0) (not p12) (not p31)) (or p14 p17 p11) (or (not p31) p33 (not p26)) (or (not p8) p35 (not p31)) (or (not p3) (not p23) (not p6)) (or p29 p25 (not p3)) (or p37 p39 p37) (or (not p31) p27 (not p21)) (or p36 p12 p21) (or p11 p17 (not p0)) (or (not p9) p1 p7) (or (not p34) p4 (not p37)) (or p15 (not p25) p15) (or (not p29) (not p24) p15) (or (not p21) (not p11) p29) (or p28 (not p10) (not p11)) (or p32 (not p3) (not p25)) (or (not p25) (not p24) (not p9)) (or (not p10) (not p19) (not p39)) (or p21 p11 p12) (or p34 (not p26) (not p28)) (or p19 (not p33) (not p39)) (or (not p32) p22 p22) (or (not p4) p10 p35) (or (not p26) (not p28) (not p22)) (or (not p26) p8 p22) (or p13 p10 (not p26)) (or p16 p22 p9) (or p27 (not p4) (not p37)) (or p33 (not p38) (not p27)) (or (not p16) (not p4) (not p5)) (or (not p15) p1 (not p3)) (or (not p38) (not p14) p8) (or p25 p13 (not p18)) (or (not p10) (not p21) (not p0)) (or p6 p19 (not p6)))
)
(check-sat)
(get-model)
